proyfinal/src/viki/013/experimentInOfficeAgust.take6.output/f325bb43-e695-482b-a3b0-ece0c80a9981.als.out
Reading from standard input... Use '--help' for help.
============================[ Problem Statistics ]=============================
|                                                                             |
|  Number of variables:         87638                                         |
|  Number of clauses:          161767                                         |
|  Parse time:                   0.03 s                                       |
|                                                                             |
============================[ Search Statistics ]==============================
| Conflicts |          ORIGINAL         |          LEARNT          | Progress |
|           |    Vars  Clauses Literals |    Limit  Clauses Lit/Cl |          |
===============================================================================
|       100 |   63264   108537   271390 |    39796       97     28 | 27.812 % |
|       250 |   63264   108207   270620 |    43776      247     36 | 27.812 % |
|       475 |   63244   108087   270354 |    48154      470     42 | 27.835 % |
|       812 |   63244   108087   270354 |    52969      807     56 | 27.835 % |
|      1318 |   63223   108001   270156 |    58266     1311     62 | 27.859 % |
|      2077 |   63196   107968   270072 |    64093     2068     80 | 27.890 % |
|      3216 |   63151   107737   269456 |    70502     3165     73 | 27.941 % |
|      4924 |   63108   107561   269046 |    77552     4870     73 | 27.990 % |
|      7486 |   63052   107418   268734 |    85308     6949     77 | 28.054 % |
|     11330 |   62981   107028   267791 |    93839    10622     91 | 28.135 % |
===============================================================================
restarts              : 62
conflicts             : 14933          (5835 /sec)
decisions             : 49061          (0.00 % random) (19171 /sec)
propagations          : 22264915       (8700213 /sec)
conflict literals     : 1351527        (55.37 % deleted)
Memory used           : 27.17 MB
CPU time              : 2.55912 s

INDETERMINATE
